lbl,CUST NO.,READY TIME,XCOORD.,YCOORD.,DEMAND,DUE DATE,SERVICE TIME
4,57,53,21,48,10,274,90
4,118,104,21,44,20,192,90
4,83,232,17,43,10,251,90
4,143,286,16,39,20,386,90
4,176,307,16,38,20,547,90
4,36,475,17,37,30,562,90
4,33,530,18,38,30,689,90
4,121,613,19,37,20,790,90
4,165,683,19,39,10,903,90
4,188,810,20,39,10,958,90
4,108,911,22,38,20,1042,90
